(set-option :auto-config false)
(set-option :model true)

(set-option :smt.mbqi false)

(define-sort Str () Int)
(declare-fun strLen (Str) Int)
(declare-fun subString (Str Int Int) Str)
(declare-fun concatString (Str Str) Str)
(define-sort Elt () Int)
(define-sort LSet () (Array Elt Bool))
(define-fun smt_set_emp () LSet ((as const LSet) false))
(define-fun smt_set_sng ((x Elt)) LSet (store ((as const LSet) false) x true))
(define-fun smt_set_mem ((x Elt) (s LSet)) Bool (select s x))
(define-fun smt_set_add ((s LSet) (x Elt)) LSet (store s x true))
(define-fun smt_set_cup ((s1 LSet) (s2 LSet)) LSet ((_ map or) s1 s2))
(define-fun smt_set_cap ((s1 LSet) (s2 LSet)) LSet ((_ map and) s1 s2))
(define-fun smt_set_com ((s LSet)) LSet ((_ map not) s))
(define-fun smt_set_dif ((s1 LSet) (s2 LSet)) LSet (smt_set_cap s1 (smt_set_com s2)))
(define-fun smt_set_sub ((s1 LSet) (s2 LSet)) Bool (= smt_set_emp (smt_set_dif s1 s2)))
(define-sort Map () (Array Elt Elt))
(define-fun smt_map_sel ((m Map) (k Elt)) Elt (select m k))
(define-fun smt_map_sto ((m Map) (k Elt) (v Elt)) Map (store m k v))
(define-fun smt_map_cup ((m1 Map) (m2 Map)) Map ((_ map (+ (Elt Elt) Elt)) m1 m2))
(define-fun smt_map_prj ((s LSet) (m Map)) Map ((_ map (ite (Bool Elt Elt) Elt)) s m ((as const (Array Elt Elt)) 0)))
(define-fun smt_map_to_set ((m Map)) LSet ((_ map (> (Elt Elt) Bool)) m ((as const (Array Elt Elt)) 0)))
(define-fun smt_map_max ((m1 Map) (m2 Map)) Map (lambda ((i Int)) (ite (> (select m1 i) (select m2 i)) (select m1 i) (select m2 i))))
(define-fun smt_map_min ((m1 Map) (m2 Map)) Map (lambda ((i Int)) (ite (< (select m1 i) (select m2 i)) (select m1 i) (select m2 i))))
(define-fun smt_map_shift ((n Int) (m Map)) Map (lambda ((i Int)) (select m (- i n))))
(define-fun smt_map_def ((v Elt)) Map ((as const (Map)) v))
(define-fun bool_to_int ((b Bool)) Int (ite b 1 0))
(define-fun Z3_OP_MUL ((x Int) (y Int)) Int (* x y))
(define-fun Z3_OP_DIV ((x Int) (y Int)) Int (div x y))
(declare-fun papp7 () Int)
(declare-fun InterfaceAdapters.Water.MH.Core.WaterLevelHeaders.RevenueRegionHeader () Int)
(declare-fun Data.ByteString.Internal.$36$WPS () Int)
(declare-fun Data.Attoparsec.Internal.Types.Done () Int)
(declare-fun GHC.Types.$91$$93$ () Int)
(declare-fun InterfaceAdapters.Water.MH.Core.WaterLevelHeaders.$36$fShowJustSectionHeaders () Int)
(declare-fun GHC.Types.Word32Rep () Int)
(declare-fun GHC.Unicode.Surrogate () Int)
(declare-fun GHC.Types.C$35$ () Int)
(declare-fun GHC.Prim.void$35$ () Int)
(declare-fun GHC.Unicode.MathSymbol () Int)
(declare-fun GHC.Unicode.SpacingCombiningMark () Int)
(declare-fun Data.Functor.void () Int)
(declare-fun GHC.Word.W32$35$ () Int)
(declare-fun GHC.Types.$58$ () Int)
(declare-fun GHC.Unicode.ConnectorPunctuation () Int)
(declare-fun tail () Int)
(declare-fun GHC.IO.Handle.Types.$36$WFileHandle () Int)
(declare-fun Data.ByteString.Lazy.Internal.Chunk () Int)
(declare-fun InterfaceAdapters.Water.MH.Core.WaterLevelHeaders.RegionEntry () Int)
(declare-fun Data.Attoparsec.ByteString.Char8.char () Int)
(declare-fun GHC.Unicode.OtherSymbol () Int)
(declare-fun Data.Attoparsec.ByteString.Char8.decimal () Int)
(declare-fun Data.Attoparsec.Internal.Types.$36$fAlternativeParser () Int)
(declare-fun GHC.Types.Word8Rep () Int)
(declare-fun Control.Applicative.WrapMonad () Int)
(declare-fun Data.Attoparsec.Combinator.$60$$63$$62$ () Int)
(declare-fun GHC.IO.Handle.Types.DuplexHandle () Int)
(declare-fun GHC.IO.Handle.Types.FileHandle () Int)
(declare-fun GHC.Word.$36$fNumWord8 () Int)
(declare-fun GHC.Word.W8$35$ () Int)
(declare-fun InterfaceAdapters.Water.MH.Core.WaterLevelHeaders.$36$fShowRegionWaterData () Int)
(declare-fun GHC.Tuple.$40$$44$$41$ () Int)
(declare-fun GHC.Classes.$61$$61$ () Int)
(declare-fun Data.Attoparsec.ByteString.Internal.takeWhile () Int)
(declare-fun papp5 () Int)
(declare-fun GHC.Types.Word16Rep () Int)
(declare-fun GHC.Maybe.Just () Int)
(declare-fun x_Tuple22 () Int)
(declare-fun GHC.Unicode.Space () Int)
(declare-fun Data.Attoparsec.Internal.Types.$36$fFunctorParser () Int)
(declare-fun GHC.Base.$62$$62$$61$ () Int)
(declare-fun GHC.Unicode.TitlecaseLetter () Int)
(declare-fun GHC.Unicode.ClosePunctuation () Int)
(declare-fun GHC.IO.Exception.IOError () Int)
(declare-fun Data.Attoparsec.ByteString.Char8.isHorizontalSpace () Int)
(declare-fun GHC.Types.Module () Int)
(declare-fun GHC.Stack.Types.FreezeCallStack () Int)
(declare-fun GHC.Types.TrNameD () Int)
(declare-fun GHC.Types.Word64Rep () Int)
(declare-fun GHC.Types.UnliftedRep () Int)
(declare-fun Data.Attoparsec.ByteString.parseTest () Int)
(declare-fun GHC.Unicode.FinalQuote () Int)
(declare-fun Data.Attoparsec.ByteString.Internal.takeWhile1 () Int)
(declare-fun GHC.Unicode.PrivateUse () Int)
(declare-fun GHC.Types.IntRep () Int)
(declare-fun Data.Attoparsec.ByteString.Char8.isDigit_w8 () Int)
(declare-fun GHC.Base.$60$$124$$62$ () Int)
(declare-fun GHC.Types.DoubleRep () Int)
(declare-fun GHC.Classes.not () Int)
(declare-fun GHC.Unicode.OtherLetter () Int)
(declare-fun Data.ByteString.Internal.PS () Int)
(declare-fun GHC.Types.Int8Rep () Int)
(declare-fun GHC.Real.$36$W$58$$37$ () Int)
(declare-fun GHC.Unicode.EnclosingMark () Int)
(declare-fun GHC.Types.WordRep () Int)
(declare-fun papp3 () Int)
(declare-fun InterfaceAdapters.Water.MH.Core.WaterLevelHeaders.$36$fShowPage8Page9 () Int)
(declare-fun Data.Attoparsec.ByteString.Internal.takeTill () Int)
(declare-fun InterfaceAdapters.Water.MH.Core.WaterLevelHeaders.JustSectionHeaders () Int)
(declare-fun GHC.Classes.$38$$38$ () Int)
(declare-fun GHC.Unicode.UppercaseLetter () Int)
(declare-fun Data.Attoparsec.ByteString.Internal.parseOnly () Int)
(declare-fun Data.Attoparsec.ByteString.Char8.$36$fIsStringParser () Int)
(declare-fun GHC.Enum.C$58$Bounded () Int)
(declare-fun GHC.Unicode.OtherPunctuation () Int)
(declare-fun GHC.Types.True () Int)
(declare-fun GHC.CString.unpackCString$35$ () Int)
(declare-fun GHC.Unicode.LineSeparator () Int)
(declare-fun Data.Attoparsec.ByteString.Internal.string () Int)
(declare-fun GHC.Base.$62$$62$ () Int)
(declare-fun GHC.Stack.Types.EmptyCallStack () Int)
(declare-fun x_Tuple33 () Int)
(declare-fun GHC.Unicode.CurrencySymbol () Int)
(declare-fun Data.Either.Right () Int)
(declare-fun Foreign.C.Types.CChar () Int)
(declare-fun GHC.Show.C$58$Show () Int)
(declare-fun GHC.Unicode.ModifierLetter () Int)
(declare-fun cast_as () Int)
(declare-fun GHC.Ptr.Ptr () Int)
(declare-fun InterfaceAdapters.Water.MH.Core.WaterLevelHeaders.TotalProjectFooter () Int)
(declare-fun Data.ByteString.Lazy.Internal.$36$WChunk () Int)
(declare-fun Data.Attoparsec.ByteString.Char8.space () Int)
(declare-fun cast_as_int () Int)
(declare-fun GHC.Unicode.ParagraphSeparator () Int)
(declare-fun InterfaceAdapters.Water.MH.Core.WaterLevelHeaders.Page8Page9 () Int)
(declare-fun GHC.Unicode.LetterNumber () Int)
(declare-fun Data.Attoparsec.ByteString.Internal.endOfLine () Int)
(declare-fun GHC.Types.Int64Rep () Int)
(declare-fun GHC.Types.LT () Int)
(declare-fun GHC.Tuple.$40$$44$$44$$41$ () Int)
(declare-fun papp1 () Int)
(declare-fun GHC.Unicode.LowercaseLetter () Int)
(declare-fun GHC.Types.AddrRep () Int)
(declare-fun Data.Attoparsec.Internal.Types.$36$fMonadParser () Int)
(declare-fun papp6 () Int)
(declare-fun GHC.Classes.C$58$IP () Int)
(declare-fun Data.Either.Left () Int)
(declare-fun GHC.Unicode.OtherNumber () Int)
(declare-fun Data.Functor.Const.Const () Int)
(declare-fun liquid_internal_this () Int)
(declare-fun InterfaceAdapters.Water.MH.Core.WaterLevelHeaders.RegionWaterData () Int)
(declare-fun GHC.Tuple.$40$$41$ () Int)
(declare-fun GHC.Types.I$35$ () Int)
(declare-fun Data.ByteString.Lazy.Internal.Empty () Int)
(declare-fun x_Tuple31 () Int)
(declare-fun GHC.Unicode.OpenPunctuation () Int)
(declare-fun GHC.Num.Integer.IS () Int)
(declare-fun GHC.Unicode.Format () Int)
(declare-fun GHC.Types.FloatRep () Int)
(declare-fun GHC.Word.W16$35$ () Int)
(declare-fun Data.ByteString.Internal.$36$fShowByteString () Int)
(declare-fun GHC.Word.W64$35$ () Int)
(declare-fun Data.Attoparsec.ByteString.Char8.double () Int)
(declare-fun GHC.Types.LiftedRep () Int)
(declare-fun GHC.Types.EQ () Int)
(declare-fun GHC.Real.$58$$37$ () Int)
(declare-fun GHC.Types.VecRep () Int)
(declare-fun GHC.Unicode.ModifierSymbol () Int)
(declare-fun Data.Attoparsec.Combinator.manyTill () Int)
(declare-fun GHC.Unicode.Control () Int)
(declare-fun InterfaceAdapters.Water.MH.Core.WaterLevelHeaders.SectionHeaders () Int)
(declare-fun GHC.Types.Int16Rep () Int)
(declare-fun papp4 () Int)
(declare-fun GHC.Base.return () Int)
(declare-fun GHC.Stack.Types.PushCallStack () Int)
(declare-fun GHC.Types.Eq$35$ () Int)
(declare-fun InterfaceAdapters.Water.MH.Core.WaterLevelHeaders.PercentLiveStorage () Int)
(declare-fun GHC.Num.fromInteger () Int)
(declare-fun GHC.Types.SumRep () Int)
(declare-fun GHC.Unicode.NotAssigned () Int)
(declare-fun x_Tuple21 () Int)
(declare-fun head () Int)
(declare-fun GHC.Maybe.Nothing () Int)
(declare-fun GHC.Unicode.DecimalNumber () Int)
(declare-fun InterfaceAdapters.Water.MH.Core.WaterLevelHeaders.$36$fShowCategoryProjects () Int)
(declare-fun GHC.Types.D$35$ () Int)
(declare-fun GHC.Num.Integer.IP () Int)
(declare-fun Data.Attoparsec.Combinator.sepBy1 () Int)
(declare-fun Control.Applicative.WrapArrow () Int)
(declare-fun InterfaceAdapters.Water.MH.Core.WaterLevelHeaders.$36$fShowSectionHeaders () Int)
(declare-fun x_Tuple32 () Int)
(declare-fun GHC.Types.TupleRep () Int)
(declare-fun InterfaceAdapters.Water.MH.Core.WaterLevelHeaders.$36$fShowTotalProjectFooter () Int)
(declare-fun GHC.Unicode.NonSpacingMark () Int)
(declare-fun GHC.Types.TrNameS () Int)
(declare-fun GHC.Num.Integer.IN () Int)
(declare-fun InterfaceAdapters.Water.MH.Core.WaterLevelHeaders.$36$fShowRegionEntry () Int)
(declare-fun Data.ByteString.Internal.$36$fIsStringByteString () Int)
(declare-fun InterfaceAdapters.Water.MH.Core.WaterLevelHeaders.CategoryProjects () Int)
(declare-fun GHC.Real.$36$fIntegralInt () Int)
(declare-fun Data.Attoparsec.Internal.Types.Fail () Int)
(declare-fun GHC.Types.False () Int)
(declare-fun Control.Applicative.ZipList () Int)
(declare-fun GHC.Unicode.InitialQuote () Int)
(declare-fun papp2 () Int)
(declare-fun GHC.Classes.$47$$61$ () Int)
(declare-fun GHC.Word.$36$fEqWord8 () Int)
(declare-fun Data.String.fromString () Int)
(declare-fun GHC.IO.Handle.Types.$36$WDuplexHandle () Int)
(declare-fun GHC.Types.GT () Int)
(declare-fun GHC.Types.Int32Rep () Int)
(declare-fun GHC.Unicode.DashPunctuation () Int)
(declare-fun apply$35$$35$13 (Int (_ BitVec 32)) Bool)
(declare-fun apply$35$$35$1 (Int Int) Bool)
(declare-fun apply$35$$35$3 (Int Int) (_ BitVec 32))
(declare-fun apply$35$$35$15 (Int (_ BitVec 32)) (_ BitVec 32))
(declare-fun apply$35$$35$14 (Int (_ BitVec 32)) Str)
(declare-fun apply$35$$35$9 (Int Str) Bool)
(declare-fun apply$35$$35$4 (Int Bool) Int)
(declare-fun apply$35$$35$10 (Int Str) Str)
(declare-fun apply$35$$35$11 (Int Str) (_ BitVec 32))
(declare-fun apply$35$$35$12 (Int (_ BitVec 32)) Int)
(declare-fun apply$35$$35$8 (Int Str) Int)
(declare-fun apply$35$$35$0 (Int Int) Int)
(declare-fun apply$35$$35$6 (Int Bool) Str)
(declare-fun apply$35$$35$7 (Int Bool) (_ BitVec 32))
(declare-fun apply$35$$35$2 (Int Int) Str)
(declare-fun apply$35$$35$5 (Int Bool) Bool)
(declare-fun coerce$35$$35$13 ((_ BitVec 32)) Bool)
(declare-fun coerce$35$$35$1 (Int) Bool)
(declare-fun coerce$35$$35$3 (Int) (_ BitVec 32))
(declare-fun coerce$35$$35$15 ((_ BitVec 32)) (_ BitVec 32))
(declare-fun coerce$35$$35$14 ((_ BitVec 32)) Str)
(declare-fun coerce$35$$35$9 (Str) Bool)
(declare-fun coerce$35$$35$4 (Bool) Int)
(declare-fun coerce$35$$35$10 (Str) Str)
(declare-fun coerce$35$$35$11 (Str) (_ BitVec 32))
(declare-fun coerce$35$$35$12 ((_ BitVec 32)) Int)
(declare-fun coerce$35$$35$8 (Str) Int)
(declare-fun coerce$35$$35$0 (Int) Int)
(declare-fun coerce$35$$35$6 (Bool) Str)
(declare-fun coerce$35$$35$7 (Bool) (_ BitVec 32))
(declare-fun coerce$35$$35$2 (Int) Str)
(declare-fun coerce$35$$35$5 (Bool) Bool)
(declare-fun smt_lambda$35$$35$13 ((_ BitVec 32) Bool) Int)
(declare-fun smt_lambda$35$$35$1 (Int Bool) Int)
(declare-fun smt_lambda$35$$35$3 (Int (_ BitVec 32)) Int)
(declare-fun smt_lambda$35$$35$15 ((_ BitVec 32) (_ BitVec 32)) Int)
(declare-fun smt_lambda$35$$35$14 ((_ BitVec 32) Str) Int)
(declare-fun smt_lambda$35$$35$9 (Str Bool) Int)
(declare-fun smt_lambda$35$$35$4 (Bool Int) Int)
(declare-fun smt_lambda$35$$35$10 (Str Str) Int)
(declare-fun smt_lambda$35$$35$11 (Str (_ BitVec 32)) Int)
(declare-fun smt_lambda$35$$35$12 ((_ BitVec 32) Int) Int)
(declare-fun smt_lambda$35$$35$8 (Str Int) Int)
(declare-fun smt_lambda$35$$35$0 (Int Int) Int)
(declare-fun smt_lambda$35$$35$6 (Bool Str) Int)
(declare-fun smt_lambda$35$$35$7 (Bool (_ BitVec 32)) Int)
(declare-fun smt_lambda$35$$35$2 (Int Str) Int)
(declare-fun smt_lambda$35$$35$5 (Bool Bool) Int)
(declare-fun lam_arg$35$$35$1$35$$35$4 () Bool)
(declare-fun lam_arg$35$$35$2$35$$35$4 () Bool)
(declare-fun lam_arg$35$$35$3$35$$35$4 () Bool)
(declare-fun lam_arg$35$$35$4$35$$35$4 () Bool)
(declare-fun lam_arg$35$$35$5$35$$35$4 () Bool)
(declare-fun lam_arg$35$$35$6$35$$35$4 () Bool)
(declare-fun lam_arg$35$$35$7$35$$35$4 () Bool)
(declare-fun lam_arg$35$$35$1$35$$35$12 () (_ BitVec 32))
(declare-fun lam_arg$35$$35$2$35$$35$12 () (_ BitVec 32))
(declare-fun lam_arg$35$$35$3$35$$35$12 () (_ BitVec 32))
(declare-fun lam_arg$35$$35$4$35$$35$12 () (_ BitVec 32))
(declare-fun lam_arg$35$$35$5$35$$35$12 () (_ BitVec 32))
(declare-fun lam_arg$35$$35$6$35$$35$12 () (_ BitVec 32))
(declare-fun lam_arg$35$$35$7$35$$35$12 () (_ BitVec 32))
(declare-fun lam_arg$35$$35$1$35$$35$8 () Str)
(declare-fun lam_arg$35$$35$2$35$$35$8 () Str)
(declare-fun lam_arg$35$$35$3$35$$35$8 () Str)
(declare-fun lam_arg$35$$35$4$35$$35$8 () Str)
(declare-fun lam_arg$35$$35$5$35$$35$8 () Str)
(declare-fun lam_arg$35$$35$6$35$$35$8 () Str)
(declare-fun lam_arg$35$$35$7$35$$35$8 () Str)
(declare-fun lam_arg$35$$35$1$35$$35$0 () Int)
(declare-fun lam_arg$35$$35$2$35$$35$0 () Int)
(declare-fun lam_arg$35$$35$3$35$$35$0 () Int)
(declare-fun lam_arg$35$$35$4$35$$35$0 () Int)
(declare-fun lam_arg$35$$35$5$35$$35$0 () Int)
(declare-fun lam_arg$35$$35$6$35$$35$0 () Int)
(declare-fun lam_arg$35$$35$7$35$$35$0 () Int)

(assert (distinct GHC.Types.False GHC.Types.True))



(assert (distinct GHC.Types.Int32Rep GHC.Types.Int16Rep GHC.Types.LiftedRep GHC.Types.FloatRep GHC.Types.AddrRep GHC.Types.Int64Rep GHC.Types.WordRep GHC.Types.Int8Rep GHC.Types.DoubleRep GHC.Types.IntRep GHC.Types.UnliftedRep GHC.Types.Word64Rep GHC.Types.Word16Rep GHC.Types.Word8Rep GHC.Types.Word32Rep))







(assert (distinct GHC.Types.GT GHC.Types.EQ GHC.Types.LT))



(assert (distinct GHC.Unicode.DashPunctuation GHC.Unicode.InitialQuote GHC.Unicode.NonSpacingMark GHC.Unicode.DecimalNumber GHC.Unicode.NotAssigned GHC.Unicode.Control GHC.Unicode.ModifierSymbol GHC.Unicode.Format GHC.Unicode.OpenPunctuation GHC.Unicode.OtherNumber GHC.Unicode.LowercaseLetter GHC.Unicode.LetterNumber GHC.Unicode.ParagraphSeparator GHC.Unicode.ModifierLetter GHC.Unicode.CurrencySymbol GHC.Unicode.LineSeparator GHC.Unicode.OtherPunctuation GHC.Unicode.UppercaseLetter GHC.Unicode.EnclosingMark GHC.Unicode.OtherLetter GHC.Unicode.PrivateUse GHC.Unicode.FinalQuote GHC.Unicode.ClosePunctuation GHC.Unicode.TitlecaseLetter GHC.Unicode.Space GHC.Unicode.OtherSymbol GHC.Unicode.ConnectorPunctuation GHC.Unicode.SpacingCombiningMark GHC.Unicode.MathSymbol GHC.Unicode.Surrogate))
(push 1)
(push 1)
(pop 1)
(pop 1)
(exit)
